(set-info :smt-lib-version 2.6)
(set-logic QF_NIA)
(set-info :source |AProve team, see http://aprove.informatik.rwth-aachen.de/, submitted for SMT-COMP 2014|)
(set-info :category "industrial")
(set-info :status unsat)
(declare-fun b__148 () Int)
(declare-fun a__24 () Int)
(declare-fun a__87 () Int)
(declare-fun a__88 () Int)
(declare-fun a__11 () Int)
(declare-fun a__2 () Int)
(declare-fun a__47 () Int)
(declare-fun a__50 () Int)
(declare-fun a__54 () Int)
(declare-fun a__76 () Int)
(declare-fun a__83 () Int)
(declare-fun a__100 () Int)
(declare-fun a__107 () Int)
(declare-fun a__108 () Int)
(declare-fun a__3 () Int)
(declare-fun a__6 () Int)
(declare-fun a__8 () Int)
(declare-fun a__18 () Int)
(declare-fun a__15 () Int)
(declare-fun a__12 () Int)
(declare-fun a__9 () Int)
(declare-fun a__20 () Int)
(declare-fun a__16 () Int)
(declare-fun a__13 () Int)
(declare-fun a__22 () Int)
(declare-fun a__25 () Int)
(declare-fun a__27 () Int)
(declare-fun a__29 () Int)
(declare-fun a__33 () Int)
(declare-fun a__30 () Int)
(declare-fun a__31 () Int)
(declare-fun a__35 () Int)
(declare-fun a__36 () Int)
(declare-fun a__38 () Int)
(declare-fun a__40 () Int)
(declare-fun a__42 () Int)
(declare-fun a__44 () Int)
(declare-fun a__45 () Int)
(declare-fun a__48 () Int)
(declare-fun a__51 () Int)
(declare-fun a__52 () Int)
(declare-fun a__55 () Int)
(declare-fun a__57 () Int)
(declare-fun a__59 () Int)
(declare-fun a__60 () Int)
(declare-fun a__62 () Int)
(declare-fun a__64 () Int)
(declare-fun a__65 () Int)
(declare-fun a__66 () Int)
(declare-fun a__68 () Int)
(declare-fun a__69 () Int)
(declare-fun a__71 () Int)
(declare-fun a__73 () Int)
(declare-fun a__74 () Int)
(declare-fun a__77 () Int)
(declare-fun a__79 () Int)
(declare-fun a__80 () Int)
(declare-fun a__84 () Int)
(declare-fun a__81 () Int)
(declare-fun a__85 () Int)
(declare-fun a__91 () Int)
(declare-fun a__92 () Int)
(declare-fun a__94 () Int)
(declare-fun a__96 () Int)
(declare-fun a__97 () Int)
(declare-fun a__101 () Int)
(declare-fun a__98 () Int)
(declare-fun a__102 () Int)
(declare-fun a__105 () Int)
(declare-fun a__104 () Int)
(declare-fun a__17 () Int)
(declare-fun a__89 () Int)
(declare-fun a__4 () Int)
(declare-fun a__32 () Int)
(declare-fun a__72 () Int)
(declare-fun a__109 () Int)
(declare-fun a__110 () Int)
(declare-fun a__111 () Int)
(declare-fun a__7 () Int)
(declare-fun a__112 () Int)
(declare-fun a__113 () Int)
(declare-fun a__114 () Int)
(declare-fun a__14 () Int)
(declare-fun a__21 () Int)
(declare-fun a__19 () Int)
(declare-fun a__95 () Int)
(declare-fun a__115 () Int)
(declare-fun a__116 () Int)
(declare-fun a__117 () Int)
(declare-fun a__118 () Int)
(declare-fun a__103 () Int)
(declare-fun a__43 () Int)
(declare-fun a__41 () Int)
(declare-fun a__90 () Int)
(declare-fun a__37 () Int)
(declare-fun a__119 () Int)
(declare-fun a__120 () Int)
(declare-fun a__121 () Int)
(declare-fun a__122 () Int)
(declare-fun a__123 () Int)
(declare-fun a__124 () Int)
(declare-fun a__125 () Int)
(declare-fun a__126 () Int)
(declare-fun a__127 () Int)
(declare-fun a__128 () Int)
(declare-fun a__129 () Int)
(declare-fun a__28 () Int)
(declare-fun a__34 () Int)
(declare-fun a__130 () Int)
(declare-fun a__131 () Int)
(declare-fun a__132 () Int)
(declare-fun a__56 () Int)
(declare-fun a__133 () Int)
(declare-fun a__134 () Int)
(declare-fun a__58 () Int)
(declare-fun a__61 () Int)
(declare-fun a__135 () Int)
(declare-fun a__136 () Int)
(declare-fun a__63 () Int)
(declare-fun a__67 () Int)
(declare-fun a__137 () Int)
(declare-fun a__138 () Int)
(declare-fun a__139 () Int)
(declare-fun a__70 () Int)
(declare-fun a__140 () Int)
(declare-fun a__141 () Int)
(declare-fun a__78 () Int)
(declare-fun a__142 () Int)
(declare-fun a__143 () Int)
(declare-fun a__144 () Int)
(declare-fun a__145 () Int)
(declare-fun a__93 () Int)
(declare-fun a__146 () Int)
(declare-fun a__147 () Int)
(declare-fun a__1 () Int)
(declare-fun a__5 () Int)
(declare-fun a__10 () Int)
(declare-fun a__23 () Int)
(declare-fun a__26 () Int)
(declare-fun a__39 () Int)
(declare-fun a__46 () Int)
(declare-fun a__49 () Int)
(declare-fun a__53 () Int)
(declare-fun a__75 () Int)
(declare-fun a__82 () Int)
(declare-fun a__86 () Int)
(declare-fun a__99 () Int)
(declare-fun a__106 () Int)
(assert (and (>= (+ 1 (* (- 0 1) b__148)) 0) (= (+ (* b__148 a__24) (* (- 0 1) a__24)) 0) (= (+ (* b__148 a__87) (* (- 0 1) a__87)) 0) (= (+ (* b__148 a__88) (* (- 0 1) a__88)) 0) (= (+ (* b__148 a__11) (* (- 0 1) a__11)) 0) (= (+ (* b__148 a__2) (* (- 0 1) a__2)) 0) (= (+ (* b__148 a__47) (* (- 0 1) a__47)) 0) (= (+ (* b__148 a__50) (* (- 0 1) a__50)) 0) (= (+ (* b__148 a__54) (* (- 0 1) a__54)) 0) (= (+ (* b__148 a__76) (* (- 0 1) a__76)) 0) (= (+ (* b__148 a__83) (* (- 0 1) a__83)) 0) (= (+ (* b__148 a__100) (* (- 0 1) a__100)) 0) (= (+ (* b__148 a__107) (* (- 0 1) a__107)) 0) (= (+ (* b__148 a__108) (* (- 0 1) a__108)) 0) (>= (+ a__3 (* (- 0 1) a__6)) 0) (>= (+ (* a__8 a__6) (* (- 0 1) (* a__18 a__15 a__11)) (* (- 0 1) a__12)) 0) (>= (+ (* a__9 a__6) (* (- 0 1) (* a__20 a__16 a__11)) (* (- 0 1) a__13)) 0) (>= (+ a__12 (* (- 0 1) (* a__22 a__2))) 0) (>= (+ a__13 (* (- 0 1) a__3)) 0) (>= (+ a__12 (* (- 0 1) a__6)) 0) (>= (+ (* a__8 a__6) (* (- 0 1) (* a__18 a__24))) 0) (>= (+ (* a__9 a__6) (* (- 0 1) (* a__20 a__25))) 0) (>= (+ a__25 (* (- 0 1) a__27)) 0) (>= (+ (* a__29 a__27) (* (- 0 1) (* a__33 a__11))) 0) (>= (+ (* a__30 a__27) (* (- 0 1) a__12)) 0) (>= (+ (* a__31 a__27) (* (- 0 1) a__13)) 0) (>= (+ (* a__29 a__27) (* (- 0 1) a__27)) 0) (>= (+ (* a__35 a__27) (* (- 0 1) (* a__33 a__2))) 0) (>= (+ (* a__36 a__27) (* (- 0 1) a__3)) 0) (>= (+ (* a__35 a__27) (* (- 0 1) a__27)) 0) (>= (+ (* a__38 a__27) (* (- 0 1) a__6)) 0) (>= (+ (* a__8 a__6) (* (- 0 1) a__40)) 0) (>= (+ (* a__8 a__40) (* (- 0 1) (* a__18 a__24))) 0) (>= (+ (* a__9 a__40) (* (- 0 1) (* a__20 a__25))) 0) (>= (+ (* a__8 a__40) (* (- 0 1) a__40)) 0) (>= (+ (* a__42 a__40) (* (- 0 1) a__40)) 0) (>= (+ (* a__44 a__40) (* (- 0 1) (* a__18 a__24))) 0) (>= (+ (* a__45 a__40) (* (- 0 1) (* a__20 a__25))) 0) (>= (+ (* a__44 a__40) (* (- 0 1) a__40)) 0) (>= (+ (* a__42 a__6) (* (- 0 1) (* a__18 a__47)) (* (- 0 1) a__48)) 0) (>= (+ a__48 (* (- 0 1) a__6)) 0) (>= (+ (* a__42 a__6) (* (- 0 1) a__40)) 0) (>= (+ (* a__44 a__6) (* (- 0 1) (* a__18 a__15 a__50)) (* (- 0 1) a__51)) 0) (>= (+ (* a__45 a__6) (* (- 0 1) (* a__20 a__16 a__50)) (* (- 0 1) a__52)) 0) (>= (+ a__51 (* (- 0 1) (* a__22 a__54))) 0) (>= (+ a__52 (* (- 0 1) a__55)) 0) (>= (+ a__55 (* (- 0 1) a__6)) 0) (>= (+ (* a__44 a__6) (* (- 0 1) (* a__18 a__24))) 0) (>= (+ (* a__45 a__6) (* (- 0 1) (* a__20 a__25))) 0) (>= (+ (* a__44 a__6) (* (- 0 1) a__40)) 0) (>= (+ a__51 (* (- 0 1) a__6)) 0) (>= (+ (* a__57 a__27) (* (- 0 1) a__27)) 0) (>= (+ (* a__59 a__27) (* (- 0 1) (* a__33 a__47))) 0) (>= (+ (* a__60 a__27) (* (- 0 1) a__48)) 0) (>= (+ (* a__59 a__27) (* (- 0 1) a__27)) 0) (>= (+ (* a__62 a__27) (* (- 0 1) a__27)) 0) (>= (+ (* a__64 a__27) (* (- 0 1) (* a__33 a__50))) 0) (>= (+ (* a__65 a__27) (* (- 0 1) a__51)) 0) (>= (+ (* a__66 a__27) (* (- 0 1) a__52)) 0) (>= (+ (* a__64 a__27) (* (- 0 1) a__27)) 0) (>= (+ (* a__68 a__27) (* (- 0 1) (* a__33 a__54))) 0) (>= (+ (* a__69 a__27) (* (- 0 1) a__55)) 0) (>= (+ (* a__68 a__27) (* (- 0 1) a__27)) 0) (>= (+ (* a__71 a__27) (* (- 0 1) a__27)) 0) (>= (+ (* a__73 a__27) (* (- 0 1) (* a__33 a__76))) 0) (>= (+ (* a__74 a__27) (* (- 0 1) a__77)) 0) (>= (+ a__77 (* (- 0 1) a__27)) 0) (>= (+ (* a__73 a__27) (* (- 0 1) a__27)) 0) (>= (+ (* a__79 a__27) (* (- 0 1) (* a__33 a__83))) 0) (>= (+ (* a__80 a__27) (* (- 0 1) a__84)) 0) (>= (+ (* a__81 a__27) (* (- 0 1) a__85)) 0) (>= (+ a__84 (* (- 0 1) (* a__33 a__88))) 0) (>= (+ a__85 (* (- 0 1) (* a__33 a__87))) 0) (>= (+ a__87 (* (- 0 1) (* a__22 a__15 a__76)) (* (- 0 1) (* a__20 a__16 a__76)) (* (- 0 1) a__77)) 0) (>= (+ a__87 (* (- 0 1) (* a__22 a__24)) (* (- 0 1) (* a__20 a__25))) 0) (>= (+ a__87 (* (- 0 1) a__6)) 0) (>= (+ a__87 (* (- 0 1) (* a__38 a__91 a__16 a__83)) (* (- 0 1) (* a__20 a__92 a__16 a__83)) (* (- 0 1) a__85)) 0) (>= (+ (* a__42 a__88) (* (- 0 1) (* a__22 a__15 a__15 a__83)) (* (- 0 1) (* a__20 a__16 a__15 a__83)) (* (- 0 1) a__84)) 0) (>= (+ a__85 (* (- 0 1) a__27)) 0) (>= (+ (* a__79 a__27) (* (- 0 1) a__27)) 0) (>= (+ (* a__8 a__27) (* (- 0 1) (* a__33 a__87))) 0) (>= (+ (* a__9 a__27) (* (- 0 1) (* a__33 a__88))) 0) (>= (+ a__87 (* (- 0 1) (* a__38 a__91 a__25)) (* (- 0 1) (* a__20 a__92 a__25))) 0) (>= (+ (* a__42 a__88) (* (- 0 1) (* a__22 a__15 a__24)) (* (- 0 1) (* a__20 a__16 a__24))) 0) (>= (+ (* a__42 a__88) (* (- 0 1) (* a__22 a__24)) (* (- 0 1) (* a__20 a__25))) 0) (>= (+ (* a__42 a__88) (* (- 0 1) a__6)) 0) (>= (+ (* a__8 a__27) (* (- 0 1) a__27)) 0) (>= (+ (* a__9 a__27) (* (- 0 1) a__27)) 0) (>= (+ (* a__94 a__27) (* (- 0 1) a__27)) 0) (>= (+ (* a__96 a__27) (* (- 0 1) (* a__33 a__100))) 0) (>= (+ (* a__97 a__27) (* (- 0 1) a__101)) 0) (>= (+ (* a__98 a__27) (* (- 0 1) a__102)) 0) (>= (+ a__101 (* (- 0 1) (* a__33 a__105 a__87))) 0) (>= (+ a__102 (* (- 0 1) (* a__33 a__104 a__87)) (* (- 0 1) (* a__33 a__88))) 0) (>= (+ a__101 (* (- 0 1) (* a__33 a__108))) 0) (>= (+ a__102 (* (- 0 1) (* a__33 a__107))) 0) (>= (+ a__107 (* (- 0 1) (* a__22 a__24)) (* (- 0 1) (* a__20 a__25))) 0) (>= (+ a__107 (* (- 0 1) a__6)) 0) (>= (+ a__107 (* (- 0 1) (* a__38 a__91 a__16 a__100)) (* (- 0 1) (* a__20 a__92 a__16 a__100)) (* (- 0 1) a__102)) 0) (>= (+ (* a__42 a__108) (* (- 0 1) (* a__22 a__15 a__15 a__100)) (* (- 0 1) (* a__20 a__16 a__15 a__100)) (* (- 0 1) a__101)) 0) (>= (+ a__102 (* (- 0 1) a__27)) 0) (>= (+ (* a__96 a__27) (* (- 0 1) a__27)) 0) (>= (+ (* a__44 a__27) (* (- 0 1) (* a__33 a__107))) 0) (>= (+ (* a__45 a__27) (* (- 0 1) (* a__33 a__108))) 0) (>= (+ a__107 (* (- 0 1) (* a__38 a__91 a__25)) (* (- 0 1) (* a__20 a__92 a__25))) 0) (>= (+ (* a__42 a__108) (* (- 0 1) (* a__22 a__15 a__24)) (* (- 0 1) (* a__20 a__16 a__24))) 0) (>= (+ (* a__42 a__108) (* (- 0 1) (* a__22 a__24)) (* (- 0 1) (* a__20 a__25))) 0) (>= (+ (* a__42 a__108) (* (- 0 1) a__6)) 0) (>= (+ (* a__44 a__27) (* (- 0 1) a__27)) 0) (>= (+ (* a__45 a__27) (* (- 0 1) a__27)) 0) (>= (+ (* a__91 a__27) (* (- 0 1) (* a__33 a__24))) 0) (>= (+ (* a__92 a__27) (* (- 0 1) a__25)) 0) (>= (+ (* a__91 a__27) (* (- 0 1) a__27)) 0) (>= (+ (* a__20 a__27) (* (- 0 1) a__40)) 0) (>= (+ (* a__42 a__27) (* (- 0 1) a__27)) 0) (>= (+ a__101 (* (- 0 1) a__27)) 0) (>= (+ a__84 (* (- 0 1) a__27)) 0) (>= (+ (* b__148 a__17) (* b__148 a__89 a__18) (* (- 0 1) (* b__148 a__4))) 0) (>= (+ (* b__148 a__32) (* b__148 a__72 a__33) (* (- 0 1) (* b__148 a__109)) (* (- 0 1) (* b__148 a__32 a__110))) 0) (>= (+ (* b__148 a__73 a__33) (* (- 0 1) (* b__148 a__33 a__110))) 0) (>= (+ (* b__148 a__74 a__33) (* (- 0 1) (* b__148 a__111))) 0) (>= (+ (* b__148 a__109) (* b__148 a__4 a__110) (* (- 0 1) (* b__148 a__32))) 0) (>= (+ (* b__148 a__111) (* (- 0 1) (* b__148 a__33))) 0) (>= (+ (* b__148 a__32) (* b__148 a__7 a__33) (* (- 0 1) (* b__148 a__112)) (* (- 0 1) (* b__148 a__32 a__113)) (* (- 0 1) (* b__148 a__32 a__114))) 0) (>= (+ (* b__148 a__8 a__33) (* (- 0 1) (* b__148 a__33 a__113))) 0) (>= (+ (* b__148 a__9 a__33) (* (- 0 1) (* b__148 a__33 a__114))) 0) (>= (+ (* b__148 a__112) (* b__148 a__89 a__114) (* (- 0 1) (* b__148 a__109)) (* (- 0 1) (* b__148 a__14 a__110)) (* (- 0 1) (* b__148 a__21 a__15 a__110)) (* (- 0 1) (* b__148 a__19 a__16 a__110))) 0) (>= (+ (* b__148 a__113) (* (- 0 1) (* b__148 a__22 a__15 a__110)) (* (- 0 1) (* b__148 a__20 a__16 a__110)) (* (- 0 1) (* b__148 a__111))) 0) (>= (+ (* b__148 a__32) (* b__148 a__95 a__33) (* (- 0 1) (* b__148 a__115)) (* (- 0 1) (* b__148 a__32 a__116))) 0) (>= (+ (* b__148 a__96 a__33) (* (- 0 1) (* b__148 a__33 a__116))) 0) (>= (+ (* b__148 a__97 a__33) (* (- 0 1) (* b__148 a__117))) 0) (>= (+ (* b__148 a__98 a__33) (* (- 0 1) (* b__148 a__118))) 0) (>= (+ (* b__148 a__115) (* b__148 a__4 a__116) (* (- 0 1) (* b__148 a__112)) (* (- 0 1) (* b__148 a__103 a__113)) (* (- 0 1) (* b__148 a__32 a__104 a__113)) (* (- 0 1) (* b__148 a__32 a__105 a__113)) (* (- 0 1) (* b__148 a__32 a__114))) 0) (>= (+ (* b__148 a__117) (* (- 0 1) (* b__148 a__33 a__105 a__113))) 0) (>= (+ (* b__148 a__118) (* (- 0 1) (* b__148 a__33 a__104 a__113)) (* (- 0 1) (* b__148 a__33 a__114))) 0) (>= (+ (* b__148 a__32) (* b__148 a__43 a__33) (* (- 0 1) (* b__148 a__103)) (* (- 0 1) (* b__148 a__32 a__104)) (* (- 0 1) (* b__148 a__32 a__105))) 0) (>= (+ (* b__148 a__44 a__33) (* (- 0 1) (* b__148 a__33 a__104))) 0) (>= (+ (* b__148 a__45 a__33) (* (- 0 1) (* b__148 a__33 a__105))) 0) (>= (+ (* b__148 a__103) (* b__148 a__41 a__105) (* (- 0 1) (* b__148 a__115)) (* (- 0 1) (* b__148 a__14 a__116)) (* (- 0 1) (* b__148 a__14 a__15 a__116)) (* (- 0 1) (* b__148 a__21 a__15 a__15 a__116)) (* (- 0 1) (* b__148 a__19 a__16 a__15 a__116)) (* (- 0 1) (* b__148 a__90 a__16 a__116)) (* (- 0 1) (* b__148 a__37 a__91 a__16 a__116)) (* (- 0 1) (* b__148 a__19 a__92 a__16 a__116))) 0) (>= (+ (* b__148 a__104) (* (- 0 1) (* b__148 a__38 a__91 a__16 a__116)) (* (- 0 1) (* b__148 a__20 a__92 a__16 a__116)) (* (- 0 1) (* b__148 a__118))) 0) (>= (+ (* b__148 a__42 a__105) (* (- 0 1) (* b__148 a__22 a__15 a__15 a__116)) (* (- 0 1) (* b__148 a__20 a__16 a__15 a__116)) (* (- 0 1) (* b__148 a__117))) 0) (>= (+ (* b__148 a__32) (* b__148 a__90 a__33) (* (- 0 1) (* b__148 a__14)) (* (- 0 1) (* b__148 a__32 a__15))) 0) (>= (+ (* b__148 a__91 a__33) (* (- 0 1) (* b__148 a__33 a__15))) 0) (>= (+ (* b__148 a__92 a__33) (* (- 0 1) (* b__148 a__16))) 0) (>= (+ (* b__148 a__14) (* b__148 a__4 a__15) (* (- 0 1) (* b__148 a__32))) 0) (>= (+ (* b__148 a__16) (* (- 0 1) (* b__148 a__33))) 0) (>= (+ (* b__148 a__32) (* b__148 a__19 a__33) (* (- 0 1) (* b__148 a__17))) 0) (>= (+ (* b__148 a__20 a__33) (* (- 0 1) (* b__148 a__18))) 0) (>= (+ (* b__148 a__17) (* b__148 a__7 a__18) (* (- 0 1) (* b__148 a__14)) (* (- 0 1) (* b__148 a__17 a__15)) (* (- 0 1) (* b__148 a__19 a__16))) 0) (>= (+ (* b__148 a__8 a__18) (* (- 0 1) (* b__148 a__18 a__15))) 0) (>= (+ (* b__148 a__9 a__18) (* (- 0 1) (* b__148 a__20 a__16))) 0) (>= (+ (* b__148 a__42 a__18) (* (- 0 1) (* b__148 a__18))) 0) (>= (+ (* b__148 a__17) (* b__148 a__43 a__18) (* (- 0 1) (* b__148 a__14)) (* (- 0 1) (* b__148 a__17 a__15)) (* (- 0 1) (* b__148 a__19 a__16))) 0) (>= (+ (* b__148 a__44 a__18) (* (- 0 1) (* b__148 a__18 a__15))) 0) (>= (+ (* b__148 a__45 a__18) (* (- 0 1) (* b__148 a__20 a__16))) 0) (>= (+ (* b__148 a__17) (* (- 0 1) (* b__148 a__19))) 0) (>= (+ (* b__148 a__18) (* (- 0 1) (* b__148 a__20))) 0) (>= (+ (* b__148 a__14) (* (- 0 1) (* b__148 a__90))) 0) (>= (+ (* b__148 a__15) (* (- 0 1) (* b__148 a__91))) 0) (>= (+ (* b__148 a__16) (* (- 0 1) (* b__148 a__92))) 0) (>= (+ (* b__148 a__21) (* b__148 a__89 a__22) (* (- 0 1) (* b__148 a__4))) 0) (>= (+ (* b__148 a__21) (* b__148 a__7 a__22) (* (- 0 1) (* b__148 a__119)) (* (- 0 1) (* b__148 a__14 a__120)) (* (- 0 1) (* b__148 a__17 a__15 a__120)) (* (- 0 1) (* b__148 a__19 a__16 a__120))) 0) (>= (+ (* b__148 a__8 a__22) (* (- 0 1) (* b__148 a__18 a__15 a__120)) (* (- 0 1) (* b__148 a__121))) 0) (>= (+ (* b__148 a__9 a__22) (* (- 0 1) (* b__148 a__20 a__16 a__120)) (* (- 0 1) (* b__148 a__122))) 0) (>= (+ (* b__148 a__21) (* b__148 a__41 a__22) (* (- 0 1) (* b__148 a__123)) (* (- 0 1) (* b__148 a__17 a__124))) 0) (>= (+ (* b__148 a__42 a__22) (* (- 0 1) (* b__148 a__18 a__124)) (* (- 0 1) (* b__148 a__125))) 0) (>= (+ (* b__148 a__21) (* b__148 a__43 a__22) (* (- 0 1) (* b__148 a__126)) (* (- 0 1) (* b__148 a__14 a__127)) (* (- 0 1) (* b__148 a__17 a__15 a__127)) (* (- 0 1) (* b__148 a__19 a__16 a__127))) 0) (>= (+ (* b__148 a__44 a__22) (* (- 0 1) (* b__148 a__18 a__15 a__127)) (* (- 0 1) (* b__148 a__128))) 0) (>= (+ (* b__148 a__45 a__22) (* (- 0 1) (* b__148 a__20 a__16 a__127)) (* (- 0 1) (* b__148 a__129))) 0) (>= (+ (* b__148 a__21) (* (- 0 1) (* b__148 a__37))) 0) (>= (+ (* b__148 a__22) (* (- 0 1) (* b__148 a__38))) 0) (>= (+ (* b__148 a__32) (* b__148 a__28 a__33) (* (- 0 1) (* b__148 a__119)) (* (- 0 1) (* b__148 a__32 a__120))) 0) (>= (+ (* b__148 a__29 a__33) (* (- 0 1) (* b__148 a__33 a__120))) 0) (>= (+ (* b__148 a__30 a__33) (* (- 0 1) (* b__148 a__121))) 0) (>= (+ (* b__148 a__31 a__33) (* (- 0 1) (* b__148 a__122))) 0) (>= (+ (* b__148 a__32) (* b__148 a__34 a__33) (* (- 0 1) (* b__148 a__130)) (* (- 0 1) (* b__148 a__32 a__131))) 0) (>= (+ (* b__148 a__35 a__33) (* (- 0 1) (* b__148 a__33 a__131))) 0) (>= (+ (* b__148 a__36 a__33) (* (- 0 1) (* b__148 a__132))) 0) (>= (+ (* b__148 a__32) (* b__148 a__37 a__33) (* (- 0 1) (* b__148 a__21))) 0) (>= (+ (* b__148 a__38 a__33) (* (- 0 1) (* b__148 a__22))) 0) (>= (+ (* b__148 a__32) (* b__148 a__56 a__33) (* (- 0 1) (* b__148 a__133)) (* (- 0 1) (* b__148 a__32 a__134))) 0) (>= (+ (* b__148 a__57 a__33) (* (- 0 1) (* b__148 a__33 a__134))) 0) (>= (+ (* b__148 a__32) (* b__148 a__58 a__33) (* (- 0 1) (* b__148 a__123)) (* (- 0 1) (* b__148 a__32 a__124))) 0) (>= (+ (* b__148 a__59 a__33) (* (- 0 1) (* b__148 a__33 a__124))) 0) (>= (+ (* b__148 a__60 a__33) (* (- 0 1) (* b__148 a__125))) 0) (>= (+ (* b__148 a__32) (* b__148 a__61 a__33) (* (- 0 1) (* b__148 a__135)) (* (- 0 1) (* b__148 a__32 a__136))) 0) (>= (+ (* b__148 a__62 a__33) (* (- 0 1) (* b__148 a__33 a__136))) 0) (>= (+ (* b__148 a__32) (* b__148 a__63 a__33) (* (- 0 1) (* b__148 a__126)) (* (- 0 1) (* b__148 a__32 a__127))) 0) (>= (+ (* b__148 a__64 a__33) (* (- 0 1) (* b__148 a__33 a__127))) 0) (>= (+ (* b__148 a__65 a__33) (* (- 0 1) (* b__148 a__128))) 0) (>= (+ (* b__148 a__66 a__33) (* (- 0 1) (* b__148 a__129))) 0) (>= (+ (* b__148 a__32) (* b__148 a__67 a__33) (* (- 0 1) (* b__148 a__137)) (* (- 0 1) (* b__148 a__32 a__138))) 0) (>= (+ (* b__148 a__68 a__33) (* (- 0 1) (* b__148 a__33 a__138))) 0) (>= (+ (* b__148 a__69 a__33) (* (- 0 1) (* b__148 a__139))) 0) (>= (+ (* b__148 a__32) (* b__148 a__70 a__33) (* (- 0 1) (* b__148 a__140)) (* (- 0 1) (* b__148 a__32 a__141))) 0) (>= (+ (* b__148 a__71 a__33) (* (- 0 1) (* b__148 a__33 a__141))) 0) (>= (+ (* b__148 a__32) (* b__148 a__78 a__33) (* (- 0 1) (* b__148 a__142)) (* (- 0 1) (* b__148 a__32 a__143))) 0) (>= (+ (* b__148 a__79 a__33) (* (- 0 1) (* b__148 a__33 a__143))) 0) (>= (+ (* b__148 a__80 a__33) (* (- 0 1) (* b__148 a__144))) 0) (>= (+ (* b__148 a__81 a__33) (* (- 0 1) (* b__148 a__145))) 0) (>= (+ (* b__148 a__32) (* b__148 a__93 a__33) (* (- 0 1) (* b__148 a__146)) (* (- 0 1) (* b__148 a__32 a__147))) 0) (>= (+ (* b__148 a__94 a__33) (* (- 0 1) (* b__148 a__33 a__147))) 0) (>= (+ (* b__148 a__32) (* b__148 a__4 a__33) (* (- 0 1) (* b__148 a__4))) 0) (>= (+ (* b__148 a__32) (* b__148 a__41 a__33) (* (- 0 1) (* b__148 a__41)) (* (- 0 1) (* b__148 a__32 a__42))) 0) (>= (+ (* b__148 a__32) (* b__148 a__89 a__33) (* (- 0 1) (* b__148 a__89))) 0) (>= (+ (* b__148 a__103) (* b__148 a__89 a__105) (* (- 0 1) (* b__148 a__146)) (* (- 0 1) (* b__148 a__14 a__147)) (* (- 0 1) (* b__148 a__21 a__15 a__147)) (* (- 0 1) (* b__148 a__19 a__16 a__147))) 0) (>= (+ (* b__148 a__104) (* (- 0 1) (* b__148 a__22 a__15 a__147)) (* (- 0 1) (* b__148 a__20 a__16 a__147))) 0) (>= (+ (* b__148 a__103) (* (- 0 1) (* b__148 a__43))) 0) (>= (+ (* b__148 a__104) (* (- 0 1) (* b__148 a__44))) 0) (>= (+ (* b__148 a__105) (* (- 0 1) (* b__148 a__45))) 0) (>= (+ (* b__148 a__119) (* b__148 a__4 a__120) (* (- 0 1) (* b__148 a__130)) (* (- 0 1) (* b__148 a__21 a__131))) 0) (>= (+ (* b__148 a__121) (* (- 0 1) (* b__148 a__22 a__131))) 0) (>= (+ (* b__148 a__122) (* (- 0 1) (* b__148 a__132))) 0) (>= (+ (* b__148 a__123) (* b__148 a__4 a__124) (* (- 0 1) (* b__148 a__135)) (* (- 0 1) (* b__148 a__21 a__136))) 0) (>= (+ (* b__148 a__125) (* (- 0 1) (* b__148 a__22 a__136))) 0) (>= (+ (* b__148 a__126) (* b__148 a__4 a__127) (* (- 0 1) (* b__148 a__137)) (* (- 0 1) (* b__148 a__21 a__138))) 0) (>= (+ (* b__148 a__128) (* (- 0 1) (* b__148 a__22 a__138))) 0) (>= (+ (* b__148 a__129) (* (- 0 1) (* b__148 a__139))) 0) (>= (+ (* b__148 a__112) (* b__148 a__41 a__114) (* (- 0 1) (* b__148 a__142)) (* (- 0 1) (* b__148 a__14 a__143)) (* (- 0 1) (* b__148 a__14 a__15 a__143)) (* (- 0 1) (* b__148 a__21 a__15 a__15 a__143)) (* (- 0 1) (* b__148 a__19 a__16 a__15 a__143)) (* (- 0 1) (* b__148 a__90 a__16 a__143)) (* (- 0 1) (* b__148 a__37 a__91 a__16 a__143)) (* (- 0 1) (* b__148 a__19 a__92 a__16 a__143))) 0) (>= (+ (* b__148 a__113) (* (- 0 1) (* b__148 a__38 a__91 a__16 a__143)) (* (- 0 1) (* b__148 a__20 a__92 a__16 a__143)) (* (- 0 1) (* b__148 a__145))) 0) (>= (+ (* b__148 a__42 a__114) (* (- 0 1) (* b__148 a__22 a__15 a__15 a__143)) (* (- 0 1) (* b__148 a__20 a__16 a__15 a__143)) (* (- 0 1) (* b__148 a__144))) 0) (>= (+ (* b__148 a__130) (* b__148 a__4 a__131) (* (- 0 1) (* b__148 a__133)) (* (- 0 1) (* b__148 a__21 a__134))) 0) (>= (+ (* b__148 a__132) (* (- 0 1) (* b__148 a__22 a__134))) 0) (>= (+ (* b__148 a__137) (* b__148 a__4 a__138) (* (- 0 1) (* b__148 a__140)) (* (- 0 1) (* b__148 a__21 a__141))) 0) (>= (+ (* b__148 a__139) (* (- 0 1) (* b__148 a__22 a__141))) 0) (>= (+ (* b__148 a__142) (* b__148 a__4 a__143) (* (- 0 1) (* b__148 a__41)) (* (- 0 1) (* b__148 a__112 a__42)) (* (- 0 1) (* b__148 a__32 a__113 a__42)) (* (- 0 1) (* b__148 a__32 a__114 a__42))) 0) (>= (+ (* b__148 a__144) (* (- 0 1) (* b__148 a__33 a__114 a__42))) 0) (>= (+ (* b__148 a__145) (* (- 0 1) (* b__148 a__33 a__113 a__42))) 0) (>= (+ (* b__148 a__119) (* (- 0 1) (* b__148 a__28))) 0) (>= (+ (* b__148 a__120) (* (- 0 1) (* b__148 a__29))) 0) (>= (+ (* b__148 a__121) (* (- 0 1) (* b__148 a__30))) 0) (>= (+ (* b__148 a__122) (* (- 0 1) (* b__148 a__31))) 0) (>= (+ (* b__148 a__130) (* (- 0 1) (* b__148 a__34))) 0) (>= (+ (* b__148 a__131) (* (- 0 1) (* b__148 a__35))) 0) (>= (+ (* b__148 a__132) (* (- 0 1) (* b__148 a__36))) 0) (>= (+ (* b__148 a__123) (* (- 0 1) (* b__148 a__58))) 0) (>= (+ (* b__148 a__124) (* (- 0 1) (* b__148 a__59))) 0) (>= (+ (* b__148 a__125) (* (- 0 1) (* b__148 a__60))) 0) (>= (+ (* b__148 a__135) (* b__148 a__4 a__136) (* (- 0 1) (* b__148 a__4))) 0) (>= (+ (* b__148 a__135) (* (- 0 1) (* b__148 a__61))) 0) (>= (+ (* b__148 a__136) (* (- 0 1) (* b__148 a__62))) 0) (>= (+ (* b__148 a__126) (* (- 0 1) (* b__148 a__63))) 0) (>= (+ (* b__148 a__127) (* (- 0 1) (* b__148 a__64))) 0) (>= (+ (* b__148 a__128) (* (- 0 1) (* b__148 a__65))) 0) (>= (+ (* b__148 a__129) (* (- 0 1) (* b__148 a__66))) 0) (>= (+ (* b__148 a__137) (* (- 0 1) (* b__148 a__67))) 0) (>= (+ (* b__148 a__138) (* (- 0 1) (* b__148 a__68))) 0) (>= (+ (* b__148 a__139) (* (- 0 1) (* b__148 a__69))) 0) (>= (+ (* b__148 a__140) (* b__148 a__4 a__141) (* (- 0 1) (* b__148 a__4))) 0) (>= (+ (* b__148 a__140) (* (- 0 1) (* b__148 a__70))) 0) (>= (+ (* b__148 a__141) (* (- 0 1) (* b__148 a__71))) 0) (>= (+ (* b__148 a__109) (* (- 0 1) (* b__148 a__72))) 0) (>= (+ (* b__148 a__110) (* (- 0 1) (* b__148 a__73))) 0) (>= (+ (* b__148 a__111) (* (- 0 1) (* b__148 a__74))) 0) (>= (+ (* b__148 a__112) (* (- 0 1) (* b__148 a__7))) 0) (>= (+ (* b__148 a__113) (* (- 0 1) (* b__148 a__8))) 0) (>= (+ (* b__148 a__114) (* (- 0 1) (* b__148 a__9))) 0) (>= (+ (* b__148 a__115) (* (- 0 1) (* b__148 a__95))) 0) (>= (+ (* b__148 a__116) (* (- 0 1) (* b__148 a__96))) 0) (>= (+ (* b__148 a__117) (* (- 0 1) (* b__148 a__97))) 0) (>= (+ (* b__148 a__118) (* (- 0 1) (* b__148 a__98))) 0) (>= (+ (* b__148 a__133) (* b__148 a__4 a__134) (* (- 0 1) (* b__148 a__4))) 0) (>= (+ (* b__148 a__133) (* (- 0 1) (* b__148 a__56))) 0) (>= (+ (* b__148 a__134) (* (- 0 1) (* b__148 a__57))) 0) (>= (+ (* b__148 a__142) (* (- 0 1) (* b__148 a__78))) 0) (>= (+ (* b__148 a__143) (* (- 0 1) (* b__148 a__79))) 0) (>= (+ (* b__148 a__144) (* (- 0 1) (* b__148 a__80))) 0) (>= (+ (* b__148 a__145) (* (- 0 1) (* b__148 a__81))) 0) (>= (+ (* b__148 a__146) (* b__148 a__4 a__147) (* (- 0 1) (* b__148 a__89))) 0) (>= (+ (* b__148 a__146) (* (- 0 1) (* b__148 a__93))) 0) (>= (+ (* b__148 a__147) (* (- 0 1) (* b__148 a__94))) 0) (>= (+ a__1 (* a__4 a__2) (* (- 0 1) a__5)) 0) (>= (+ a__5 (* a__7 a__6) (* (- 0 1) a__10) (* (- 0 1) (* a__14 a__11)) (* (- 0 1) (* a__17 a__15 a__11)) (* (- 0 1) (* a__19 a__16 a__11))) 0) (>= (+ a__10 (* a__4 a__11) (* (- 0 1) a__1) (* (- 0 1) (* a__21 a__2))) 0) (>= (+ a__10 (* a__4 a__11) (* (- 0 1) a__5)) 0) (>= (+ a__5 (* a__7 a__6) (* (- 0 1) a__23) (* (- 0 1) (* a__17 a__24)) (* (- 0 1) (* a__19 a__25))) 0) (>= (+ a__23 (* a__4 a__24) (* (- 0 1) a__26)) 0) (>= (+ a__26 (* a__28 a__27) (* (- 0 1) a__10) (* (- 0 1) (* a__32 a__11))) 0) (>= (* a__28 a__27) 0) (>= (+ a__26 (* a__34 a__27) (* (- 0 1) a__1) (* (- 0 1) (* a__32 a__2))) 0) (>= (* a__34 a__27) 0) (>= (+ a__26 (* a__37 a__27) (* (- 0 1) a__5)) 0) (>= (+ a__5 (* a__7 a__6) (* (- 0 1) a__39)) 0) (>= (+ a__39 (* a__7 a__40) (* (- 0 1) a__23) (* (- 0 1) (* a__17 a__24)) (* (- 0 1) (* a__19 a__25))) 0) (>= (* a__7 a__40) 0) (>= (* a__41 a__40) 0) (>= (+ a__39 (* a__43 a__40) (* (- 0 1) a__23) (* (- 0 1) (* a__17 a__24)) (* (- 0 1) (* a__19 a__25))) 0) (>= (* a__43 a__40) 0) (>= (+ a__5 (* a__41 a__6) (* (- 0 1) a__46) (* (- 0 1) (* a__17 a__47))) 0) (>= (+ a__46 (* a__4 a__47) (* (- 0 1) a__5)) 0) (>= (+ a__5 (* a__41 a__6) (* (- 0 1) a__39)) 0) (>= (+ a__5 (* a__43 a__6) (* (- 0 1) a__49) (* (- 0 1) (* a__14 a__50)) (* (- 0 1) (* a__17 a__15 a__50)) (* (- 0 1) (* a__19 a__16 a__50))) 0) (>= (+ a__49 (* a__4 a__50) (* (- 0 1) a__53) (* (- 0 1) (* a__21 a__54))) 0) (>= (+ a__53 (* a__4 a__54) (* (- 0 1) a__5)) 0) (>= (+ a__5 (* a__43 a__6) (* (- 0 1) a__23) (* (- 0 1) (* a__17 a__24)) (* (- 0 1) (* a__19 a__25))) 0) (>= (+ a__5 (* a__43 a__6) (* (- 0 1) a__39)) 0) (>= (+ a__49 (* a__4 a__50) (* (- 0 1) a__5)) 0) (>= (* a__56 a__27) 0) (>= (+ a__26 (* a__58 a__27) (* (- 0 1) a__46) (* (- 0 1) (* a__32 a__47))) 0) (>= (* a__58 a__27) 0) (>= (* a__61 a__27) 0) (>= (+ a__26 (* a__63 a__27) (* (- 0 1) a__49) (* (- 0 1) (* a__32 a__50))) 0) (>= (* a__63 a__27) 0) (>= (+ a__26 (* a__67 a__27) (* (- 0 1) a__53) (* (- 0 1) (* a__32 a__54))) 0) (>= (* a__67 a__27) 0) (>= (* a__70 a__27) 0) (>= (+ a__26 (* a__72 a__27) (* (- 0 1) a__75) (* (- 0 1) (* a__32 a__76))) 0) (>= (+ a__75 (* a__4 a__76) (* (- 0 1) a__26)) 0) (>= (* a__72 a__27) 0) (>= (+ a__26 (* a__78 a__27) (* (- 0 1) a__82) (* (- 0 1) (* a__32 a__83))) 0) (>= (+ a__82 (* a__4 a__83) (* (- 0 1) a__86) (* (- 0 1) (* a__32 a__87)) (* (- 0 1) (* a__32 a__88))) 0) (>= (+ a__86 (* a__89 a__88) (* (- 0 1) a__75) (* (- 0 1) (* a__14 a__76)) (* (- 0 1) (* a__21 a__15 a__76)) (* (- 0 1) (* a__19 a__16 a__76))) 0) (>= (+ a__86 (* a__89 a__88) (* (- 0 1) a__23) (* (- 0 1) (* a__21 a__24)) (* (- 0 1) (* a__19 a__25))) 0) (>= (+ a__86 (* a__89 a__88) (* (- 0 1) a__5)) 0) (>= (+ a__86 (* a__41 a__88) (* (- 0 1) a__82) (* (- 0 1) (* a__14 a__83)) (* (- 0 1) (* a__14 a__15 a__83)) (* (- 0 1) (* a__21 a__15 a__15 a__83)) (* (- 0 1) (* a__19 a__16 a__15 a__83)) (* (- 0 1) (* a__90 a__16 a__83)) (* (- 0 1) (* a__37 a__91 a__16 a__83)) (* (- 0 1) (* a__19 a__92 a__16 a__83))) 0) (>= (+ a__82 (* a__4 a__83) (* (- 0 1) a__26)) 0) (>= (* a__78 a__27) 0) (>= (+ a__26 (* a__7 a__27) (* (- 0 1) a__86) (* (- 0 1) (* a__32 a__87)) (* (- 0 1) (* a__32 a__88))) 0) (>= (+ a__86 (* a__41 a__88) (* (- 0 1) a__23) (* (- 0 1) (* a__14 a__24)) (* (- 0 1) (* a__21 a__15 a__24)) (* (- 0 1) (* a__19 a__16 a__24)) (* (- 0 1) (* a__90 a__25)) (* (- 0 1) (* a__37 a__91 a__25)) (* (- 0 1) (* a__19 a__92 a__25))) 0) (>= (+ a__86 (* a__41 a__88) (* (- 0 1) a__23) (* (- 0 1) (* a__21 a__24)) (* (- 0 1) (* a__19 a__25))) 0) (>= (+ a__86 (* a__41 a__88) (* (- 0 1) a__5)) 0) (>= (* a__7 a__27) 0) (>= (* a__93 a__27) 0) (>= (+ a__26 (* a__95 a__27) (* (- 0 1) a__99) (* (- 0 1) (* a__32 a__100))) 0) (>= (+ a__99 (* a__4 a__100) (* (- 0 1) a__86) (* (- 0 1) (* a__103 a__87)) (* (- 0 1) (* a__32 a__104 a__87)) (* (- 0 1) (* a__32 a__105 a__87)) (* (- 0 1) (* a__32 a__88))) 0) (>= (+ a__99 (* a__4 a__100) (* (- 0 1) a__106) (* (- 0 1) (* a__32 a__107)) (* (- 0 1) (* a__32 a__108))) 0) (>= (+ a__106 (* a__89 a__108) (* (- 0 1) a__23) (* (- 0 1) (* a__21 a__24)) (* (- 0 1) (* a__19 a__25))) 0) (>= (+ a__106 (* a__89 a__108) (* (- 0 1) a__5)) 0) (>= (+ a__106 (* a__41 a__108) (* (- 0 1) a__99) (* (- 0 1) (* a__14 a__100)) (* (- 0 1) (* a__14 a__15 a__100)) (* (- 0 1) (* a__21 a__15 a__15 a__100)) (* (- 0 1) (* a__19 a__16 a__15 a__100)) (* (- 0 1) (* a__90 a__16 a__100)) (* (- 0 1) (* a__37 a__91 a__16 a__100)) (* (- 0 1) (* a__19 a__92 a__16 a__100))) 0) (>= (+ a__99 (* a__4 a__100) (* (- 0 1) a__26)) 0) (>= (* a__95 a__27) 0) (>= (+ a__26 (* a__43 a__27) (* (- 0 1) a__106) (* (- 0 1) (* a__32 a__107)) (* (- 0 1) (* a__32 a__108))) 0) (>= (+ a__106 (* a__41 a__108) (* (- 0 1) a__23) (* (- 0 1) (* a__14 a__24)) (* (- 0 1) (* a__21 a__15 a__24)) (* (- 0 1) (* a__19 a__16 a__24)) (* (- 0 1) (* a__90 a__25)) (* (- 0 1) (* a__37 a__91 a__25)) (* (- 0 1) (* a__19 a__92 a__25))) 0) (>= (+ a__106 (* a__41 a__108) (* (- 0 1) a__23) (* (- 0 1) (* a__21 a__24)) (* (- 0 1) (* a__19 a__25))) 0) (>= (+ a__106 (* a__41 a__108) (* (- 0 1) a__5)) 0) (>= (* a__43 a__27) 0) (>= (+ a__26 (* a__90 a__27) (* (- 0 1) a__23) (* (- 0 1) (* a__32 a__24))) 0) (>= (* a__90 a__27) 0) (>= (+ a__26 (* a__19 a__27) (* (- 0 1) a__39)) 0) (>= (* a__41 a__27) 0) (not (and (= (+ a__1 (* a__4 a__2) (* (- 0 1) a__5)) 0) (= (+ a__5 (* a__7 a__6) (* (- 0 1) a__10) (* (- 0 1) (* a__14 a__11)) (* (- 0 1) (* a__17 a__15 a__11)) (* (- 0 1) (* a__19 a__16 a__11))) 0) (= (+ a__10 (* a__4 a__11) (* (- 0 1) a__1) (* (- 0 1) (* a__21 a__2))) 0) (= (+ a__10 (* a__4 a__11) (* (- 0 1) a__5)) 0) (= (+ a__5 (* a__7 a__6) (* (- 0 1) a__23) (* (- 0 1) (* a__17 a__24)) (* (- 0 1) (* a__19 a__25))) 0) (= (+ a__23 (* a__4 a__24) (* (- 0 1) a__26)) 0) (= (+ a__26 (* a__28 a__27) (* (- 0 1) a__10) (* (- 0 1) (* a__32 a__11))) 0) (= (* a__28 a__27) 0) (= (+ a__26 (* a__34 a__27) (* (- 0 1) a__1) (* (- 0 1) (* a__32 a__2))) 0) (= (* a__34 a__27) 0) (= (+ a__26 (* a__37 a__27) (* (- 0 1) a__5)) 0) (= (+ a__5 (* a__7 a__6) (* (- 0 1) a__39)) 0) (= (+ a__39 (* a__7 a__40) (* (- 0 1) a__23) (* (- 0 1) (* a__17 a__24)) (* (- 0 1) (* a__19 a__25))) 0) (= (* a__7 a__40) 0) (= (* a__41 a__40) 0) (= (+ a__39 (* a__43 a__40) (* (- 0 1) a__23) (* (- 0 1) (* a__17 a__24)) (* (- 0 1) (* a__19 a__25))) 0) (= (* a__43 a__40) 0) (= (+ a__5 (* a__41 a__6) (* (- 0 1) a__46) (* (- 0 1) (* a__17 a__47))) 0) (= (+ a__46 (* a__4 a__47) (* (- 0 1) a__5)) 0) (= (+ a__5 (* a__41 a__6) (* (- 0 1) a__39)) 0) (= (+ a__5 (* a__43 a__6) (* (- 0 1) a__49) (* (- 0 1) (* a__14 a__50)) (* (- 0 1) (* a__17 a__15 a__50)) (* (- 0 1) (* a__19 a__16 a__50))) 0) (= (+ a__49 (* a__4 a__50) (* (- 0 1) a__53) (* (- 0 1) (* a__21 a__54))) 0) (= (+ a__53 (* a__4 a__54) (* (- 0 1) a__5)) 0) (= (+ a__5 (* a__43 a__6) (* (- 0 1) a__23) (* (- 0 1) (* a__17 a__24)) (* (- 0 1) (* a__19 a__25))) 0) (= (+ a__5 (* a__43 a__6) (* (- 0 1) a__39)) 0) (= (+ a__49 (* a__4 a__50) (* (- 0 1) a__5)) 0) (= (* a__56 a__27) 0) (= (+ a__26 (* a__58 a__27) (* (- 0 1) a__46) (* (- 0 1) (* a__32 a__47))) 0) (= (* a__58 a__27) 0) (= (* a__61 a__27) 0) (= (+ a__26 (* a__63 a__27) (* (- 0 1) a__49) (* (- 0 1) (* a__32 a__50))) 0) (= (* a__63 a__27) 0) (= (+ a__26 (* a__67 a__27) (* (- 0 1) a__53) (* (- 0 1) (* a__32 a__54))) 0) (= (* a__67 a__27) 0) (= (* a__70 a__27) 0) (= (+ a__26 (* a__72 a__27) (* (- 0 1) a__75) (* (- 0 1) (* a__32 a__76))) 0) (= (+ a__75 (* a__4 a__76) (* (- 0 1) a__26)) 0) (= (* a__72 a__27) 0) (= (+ a__26 (* a__78 a__27) (* (- 0 1) a__82) (* (- 0 1) (* a__32 a__83))) 0) (= (+ a__82 (* a__4 a__83) (* (- 0 1) a__86) (* (- 0 1) (* a__32 a__87)) (* (- 0 1) (* a__32 a__88))) 0) (= (+ a__86 (* a__89 a__88) (* (- 0 1) a__75) (* (- 0 1) (* a__14 a__76)) (* (- 0 1) (* a__21 a__15 a__76)) (* (- 0 1) (* a__19 a__16 a__76))) 0) (= (+ a__86 (* a__89 a__88) (* (- 0 1) a__23) (* (- 0 1) (* a__21 a__24)) (* (- 0 1) (* a__19 a__25))) 0) (= (+ a__86 (* a__89 a__88) (* (- 0 1) a__5)) 0) (= (+ a__86 (* a__41 a__88) (* (- 0 1) a__82) (* (- 0 1) (* a__14 a__83)) (* (- 0 1) (* a__14 a__15 a__83)) (* (- 0 1) (* a__21 a__15 a__15 a__83)) (* (- 0 1) (* a__19 a__16 a__15 a__83)) (* (- 0 1) (* a__90 a__16 a__83)) (* (- 0 1) (* a__37 a__91 a__16 a__83)) (* (- 0 1) (* a__19 a__92 a__16 a__83))) 0) (= (+ a__82 (* a__4 a__83) (* (- 0 1) a__26)) 0) (= (* a__78 a__27) 0) (= (+ a__26 (* a__7 a__27) (* (- 0 1) a__86) (* (- 0 1) (* a__32 a__87)) (* (- 0 1) (* a__32 a__88))) 0) (= (+ a__86 (* a__41 a__88) (* (- 0 1) a__23) (* (- 0 1) (* a__14 a__24)) (* (- 0 1) (* a__21 a__15 a__24)) (* (- 0 1) (* a__19 a__16 a__24)) (* (- 0 1) (* a__90 a__25)) (* (- 0 1) (* a__37 a__91 a__25)) (* (- 0 1) (* a__19 a__92 a__25))) 0) (= (+ a__86 (* a__41 a__88) (* (- 0 1) a__23) (* (- 0 1) (* a__21 a__24)) (* (- 0 1) (* a__19 a__25))) 0) (= (+ a__86 (* a__41 a__88) (* (- 0 1) a__5)) 0) (= (* a__7 a__27) 0) (= (* a__93 a__27) 0) (= (+ a__26 (* a__95 a__27) (* (- 0 1) a__99) (* (- 0 1) (* a__32 a__100))) 0) (= (+ a__99 (* a__4 a__100) (* (- 0 1) a__86) (* (- 0 1) (* a__103 a__87)) (* (- 0 1) (* a__32 a__104 a__87)) (* (- 0 1) (* a__32 a__105 a__87)) (* (- 0 1) (* a__32 a__88))) 0) (= (+ a__99 (* a__4 a__100) (* (- 0 1) a__106) (* (- 0 1) (* a__32 a__107)) (* (- 0 1) (* a__32 a__108))) 0) (= (+ a__106 (* a__89 a__108) (* (- 0 1) a__23) (* (- 0 1) (* a__21 a__24)) (* (- 0 1) (* a__19 a__25))) 0) (= (+ a__106 (* a__89 a__108) (* (- 0 1) a__5)) 0) (= (+ a__106 (* a__41 a__108) (* (- 0 1) a__99) (* (- 0 1) (* a__14 a__100)) (* (- 0 1) (* a__14 a__15 a__100)) (* (- 0 1) (* a__21 a__15 a__15 a__100)) (* (- 0 1) (* a__19 a__16 a__15 a__100)) (* (- 0 1) (* a__90 a__16 a__100)) (* (- 0 1) (* a__37 a__91 a__16 a__100)) (* (- 0 1) (* a__19 a__92 a__16 a__100))) 0) (= (+ a__99 (* a__4 a__100) (* (- 0 1) a__26)) 0) (= (* a__95 a__27) 0) (= (+ a__26 (* a__43 a__27) (* (- 0 1) a__106) (* (- 0 1) (* a__32 a__107)) (* (- 0 1) (* a__32 a__108))) 0) (= (+ a__106 (* a__41 a__108) (* (- 0 1) a__23) (* (- 0 1) (* a__14 a__24)) (* (- 0 1) (* a__21 a__15 a__24)) (* (- 0 1) (* a__19 a__16 a__24)) (* (- 0 1) (* a__90 a__25)) (* (- 0 1) (* a__37 a__91 a__25)) (* (- 0 1) (* a__19 a__92 a__25))) 0) (= (+ a__106 (* a__41 a__108) (* (- 0 1) a__23) (* (- 0 1) (* a__21 a__24)) (* (- 0 1) (* a__19 a__25))) 0) (= (+ a__106 (* a__41 a__108) (* (- 0 1) a__5)) 0) (= (* a__43 a__27) 0) (= (+ a__26 (* a__90 a__27) (* (- 0 1) a__23) (* (- 0 1) (* a__32 a__24))) 0) (= (* a__90 a__27) 0) (= (+ a__26 (* a__19 a__27) (* (- 0 1) a__39)) 0) (= (* a__41 a__27) 0))) (>= b__148 0) (>= 1 b__148) (>= a__24 0) (>= a__87 0) (>= a__88 0) (>= a__11 0) (>= a__2 0) (>= a__47 0) (>= a__50 0) (>= a__54 0) (>= a__76 0) (>= a__83 0) (>= a__100 0) (>= a__107 0) (>= a__108 0) (>= a__3 0) (>= a__6 0) (>= a__8 0) (>= a__18 0) (>= a__15 0) (>= a__12 0) (>= a__9 0) (>= a__20 0) (>= a__16 0) (>= a__13 0) (>= a__22 0) (>= a__25 0) (>= a__27 0) (>= a__29 0) (>= a__33 0) (>= a__30 0) (>= a__31 0) (>= a__35 0) (>= a__36 0) (>= a__38 0) (>= a__40 0) (>= a__42 0) (>= a__44 0) (>= a__45 0) (>= a__48 0) (>= a__51 0) (>= a__52 0) (>= a__55 0) (>= a__57 0) (>= a__59 0) (>= a__60 0) (>= a__62 0) (>= a__64 0) (>= a__65 0) (>= a__66 0) (>= a__68 0) (>= a__69 0) (>= a__71 0) (>= a__73 0) (>= a__74 0) (>= a__77 0) (>= a__79 0) (>= a__80 0) (>= a__84 0) (>= a__81 0) (>= a__85 0) (>= a__91 0) (>= a__92 0) (>= a__94 0) (>= a__96 0) (>= a__97 0) (>= a__101 0) (>= a__98 0) (>= a__102 0) (>= a__105 0) (>= a__104 0) (>= a__17 0) (>= a__89 0) (>= a__4 0) (>= a__32 0) (>= a__72 0) (>= a__109 0) (>= a__110 0) (>= a__111 0) (>= a__7 0) (>= a__112 0) (>= a__113 0) (>= a__114 0) (>= a__14 0) (>= a__21 0) (>= a__19 0) (>= a__95 0) (>= a__115 0) (>= a__116 0) (>= a__117 0) (>= a__118 0) (>= a__103 0) (>= a__43 0) (>= a__41 0) (>= a__90 0) (>= a__37 0) (>= a__119 0) (>= a__120 0) (>= a__121 0) (>= a__122 0) (>= a__123 0) (>= a__124 0) (>= a__125 0) (>= a__126 0) (>= a__127 0) (>= a__128 0) (>= a__129 0) (>= a__28 0) (>= a__34 0) (>= a__130 0) (>= a__131 0) (>= a__132 0) (>= a__56 0) (>= a__133 0) (>= a__134 0) (>= a__58 0) (>= a__61 0) (>= a__135 0) (>= a__136 0) (>= a__63 0) (>= a__67 0) (>= a__137 0) (>= a__138 0) (>= a__139 0) (>= a__70 0) (>= a__140 0) (>= a__141 0) (>= a__78 0) (>= a__142 0) (>= a__143 0) (>= a__144 0) (>= a__145 0) (>= a__93 0) (>= a__146 0) (>= a__147 0) (>= a__1 0) (>= a__5 0) (>= a__10 0) (>= a__23 0) (>= a__26 0) (>= a__39 0) (>= a__46 0) (>= a__49 0) (>= a__53 0) (>= a__75 0) (>= a__82 0) (>= a__86 0) (>= a__99 0) (>= a__106 0)))
(check-sat)
;;(get-assignment)
;;(get-model)
(exit)
